(set-info :smt-lib-version 2.6)
(set-logic QF_S)
(set-info :source |
Generated by: Murphy Berzish, Mitja Kulczynski, Federico Mora, Florin Manea, Joel Day, Dirk Nowotka, Vijay Ganesh, Zhengyang Lu
Generated on: 2020-10-01
Description: Translated from a collection of real-world regex queries, AutomataArk, collected by Loris D’Antoni and Fang Wang: https://github.com/lorisdanto/automatark
Application: Evaluate solvers on real-world regex queries
Target solver: Z3str3RE, CVC4, OSTRICH, Z3seq, Z3str3, Z3-Trau
Publications: Berzish, M., Kulczynski, M., Mora, F., Manea, F., Day, J. D., Nowotka, D., & Ganesh, V. (2021, July). An SMT solver for regular expressions and linear arithmetic over string length. In CAV 2021.
|)
(set-info :license "https://creativecommons.org/licenses/by/4.0/")
(set-info :category "industrial")
(set-info :status unsat)

(declare-const X String)
(assert (not (str.in_re X (str.to_re "rank.toolbarbrowser.comlnzzlnbk/pkrm.fin\u{a}"))))
(assert (str.in_re X (re.union (re.++ ((_ re.loop 2 2) (re.union (re.range "A" "H") (re.range "J" "P") (re.range "R" "Y"))) (re.union (str.to_re "0") (str.to_re "5") (str.to_re "6")) (re.range "0" "9") (re.opt (re.union (str.to_re " ") (str.to_re "\u{9}") (str.to_re "\u{a}") (str.to_re "\u{c}") (str.to_re "\u{d}"))) ((_ re.loop 3 3) (re.union (re.range "A" "H") (re.range "J" "P") (re.range "R" "Y")))) (re.++ ((_ re.loop 1 3) (re.union (re.range "A" "H") (re.range "J" "N") (re.range "P" "Y"))) ((_ re.loop 2 3) (re.range "0" "9")) (re.union (str.to_re " ") (str.to_re "\u{9}") (str.to_re "\u{a}") (str.to_re "\u{c}") (str.to_re "\u{d}")) ((_ re.loop 3 3) (re.range "A" "Z"))) (re.++ ((_ re.loop 1 3) (re.range "A" "Z")) (re.opt (re.union (str.to_re " ") (str.to_re "\u{9}") (str.to_re "\u{a}") (str.to_re "\u{c}") (str.to_re "\u{d}"))) ((_ re.loop 1 4) (re.range "0" "9")) (re.opt ((_ re.loop 1 1) (re.range "A" "Z")))) (re.++ ((_ re.loop 4 4) (re.range "0" "9")) ((_ re.loop 1 3) (re.range "A" "Z"))) (re.++ ((_ re.loop 1 2) (re.range "A" "Z")) (re.opt (re.union (str.to_re " ") (str.to_re "\u{9}") (str.to_re "\u{a}") (str.to_re "\u{c}") (str.to_re "\u{d}"))) ((_ re.loop 1 4) (re.range "0" "9"))) (re.++ ((_ re.loop 2 3) (re.range "A" "Z")) (re.opt (re.union (str.to_re " ") (str.to_re "\u{9}") (str.to_re "\u{a}") (str.to_re "\u{c}") (str.to_re "\u{d}"))) ((_ re.loop 1 4) (re.range "0" "9"))) (re.++ (str.to_re "\u{a}") ((_ re.loop 1 4) (re.range "0" "9")) (re.opt (re.union (str.to_re " ") (str.to_re "\u{9}") (str.to_re "\u{a}") (str.to_re "\u{c}") (str.to_re "\u{d}"))) ((_ re.loop 2 3) (re.range "A" "Z"))))))
(assert (not (str.in_re X (re.++ (str.to_re "/.jpf") (re.union (str.to_re "?") (str.to_re "\u{5c}") (str.to_re "/")) (str.to_re "/smiU\u{a}")))))
(assert (not (str.in_re X (re.++ (str.to_re "Host:") (re.+ (re.union (str.to_re " ") (str.to_re "\u{9}") (str.to_re "\u{a}") (str.to_re "\u{c}") (str.to_re "\u{d}"))) (str.to_re "Host:/toolbar/supremetb\u{a}")))))
(assert (str.in_re X (re.++ (str.to_re "HWAE") (re.+ (re.union (str.to_re " ") (str.to_re "\u{9}") (str.to_re "\u{a}") (str.to_re "\u{c}") (str.to_re "\u{d}"))) (str.to_re "/ta/NEWS/Guptacharloomcompany.com\u{a}"))))
(check-sat)

(exit)
